#######################################
### Exact MIP solver for the HHCRSP ###
#######################################
-- Instance file: new-instances/HHCRSP_400_80_69_1.2_R_RC.txt
-- Max threads: 4
-- Time limit: 999999 seconds
-- Use initial solution: No
Trivial flow violations prevented generating 2860825 variables.
Version identifier: 20.1.0.0 | 2020-11-10 | 9bedb6d68
CPXPARAM_Threads                                 4
CPXPARAM_Emphasis_Memory                         1
CPXPARAM_TimeLimit                               999999
Tried aggregator 1 time.
Presolve has eliminated 85392 rows and 19087 columns...
LP Presolve eliminated 85392 rows and 19087 columns.
Reduced LP has 3071374 rows, 2907315 columns, and 89463990 nonzeros.
Presolve time = 91.73 sec. (18877.72 ticks)
Compression time = 23.37 sec. (5.80 ticks)
Compression reduced 1285.35 MB A matrix to 387.89 MB
Symmetry aggregator did 5242230 additional substitutions.
Initializing dual steep norms . . .
Elapsed time = 116.54 sec. (19610.24 ticks, 1 iterations)

Iteration log . . .
Iteration:     1   Dual objective     =             1.666667
Iteration:  1768   Dual objective     =           466.000000

Dual crossover.
  Dual:  Fixing 3344 variables.
     3343 DMoves:  Infeasibility  2.08721929e-12  Objective  4.68333333e+02
        0 DMoves:  Infeasibility  1.06450034e-12  Objective  4.68333333e+02
  Dual:  Pushed 92, exchanged 3252.
  Primal:  Fixing 2135 variables.
     2134 PMoves:  Infeasibility  0.00000000e+00  Objective  4.68333333e+02
        0 PMoves:  Infeasibility  0.00000000e+00  Objective  4.68333333e+02
  Primal:  Pushed 1929, exchanged 206.

Solution status from MIP model:
-- Processing time: 158.634 sec.
-- Memory used: 1988.19 MB
-- Best bound: inf
-- Obj value: 468.333
-- Gap: inf%
-- Total distance: 1405
-- Total tardiness: 0
-- Largest tardiness: 0
